[[33, 43, 10, 9, 8, 41, 19, 45, 3, 17, 21, 42, 7, 2, 30, 23, 31, 18, 22, 32, 49, 20, 50], [29, 16, 46, 44, 34, 35, 36, 39, 37, 40, 38, 24, 48, 5, 15, 6, 4, 25, 12, 28, 27, 26, 47, 13, 14, 52, 11, 51]]